0 47 
1 46 
2 48 
3 48 
4 48 
5 45 
6 44 
7 44 
8 43 
9 41 
10 40 
11 39 
12 36 
13 33 
14 30 
15 30 
16 32 
17 31 
18 29 
19 27 
20 26 
21 27 
22 26 
23 27 
24 25 
25 22 
26 19 
27 19 
28 19 
29 18 
30 16 
31 14 
32 15 
33 14 
34 12 
35 11 
36 9 
37 7 
38 6 
39 5 
40 4 
41 3 
42 3 
43 2 
44 1 
45 0 
46 0 

